
  32    4
  10   10   10   10

   0   0   0   0   0   1 2 
   2  10  10  10  10   2 4 3 
   4  10  10  10  10   1 5 
   7  10  10  10  10   1 5 
   7  10  10  10  10   2 7 6 
   5  10  10  10  10   2 10 8 
   9  10  10  10  10   2 10 8 
   1  10  10  10  10   2 11 9 
   7  10  10  10  10   2 13 12 
   9  10  10  10  10   2 13 11 
   4  10  10  10  10   2 15 14 
   4  10  10  10  10   2 15 14 
   6  10  10  10  10   1 14 
   3  10  10  10  10   4 19 18 17 16 
   9  10  10  10  10   4 19 18 17 16 
   5  10  10  10  10   2 21 20 
   3  10  10  10  10   2 21 20 
   5  10  10  10  10   1 20 
   3  10  10  10  10   1 20 
   3  10  10  10  10   2 23 22 
   5  10  10  10  10   2 23 22 
   9  10  10  10  10   2 25 24 
   2  10  10  10  10   2 25 24 
   9  10  10  10  10   4 29 28 27 26 
   4  10  10  10  10   4 29 28 27 26 
   7  10  10  10  10   1 30 
   3  10  10  10  10   1 30 
   4  10  10  10  10   1 30 
   4  10  10  10  10   1 30 
  10  10  10  10  10   1 31 
   2  10  10  10  10   1 32
   0   0   0   0   0   0 
